c Result of efficient AIG-to-CNF conversion using package CNF
p cnf 478 1662
-2 3 -376 399 0
-2 3 391 399 0
2 -3 0
2 -399 0
2 376 -391 0
-3 273 372 0
-3 273 -344 0
-3 -4 273 0
3 -273 0
3 4 344 -372 0
-4 5 226 234 270 0
-4 -5 -226 234 270 0
4 -270 0
4 -5 226 0
4 -234 0
4 5 -226 0
5 -6 -45 0
5 -6 -225 0
-5 6 0
-5 45 225 0
-6 451 7 0
6 -451 0
6 -7 0
7 -441 8 -34 0
7 441 8 -19 0
-7 -8 0
-7 -441 34 0
-7 441 19 0
-8 9 15 17 18 0
8 -18 0
8 -9 0
8 -17 0
8 -15 0
-9 438 439 10 12 0
9 -438 0
9 -12 0
9 -10 0
9 -439 0
-10 430 436 437 11 0
10 -11 0
10 -437 0
10 -430 0
10 -436 0
-11 434 435 440 0
11 -434 0
11 -440 0
11 -435 0
-12 431 432 433 13 0
12 -13 0
12 -433 0
12 -431 0
12 -432 0
-13 426 427 14 0
13 -14 0
13 -427 0
13 -426 0
-14 422 423 428 429 0
14 -429 0
14 -428 0
14 -422 0
14 -423 0
-15 420 424 425 16 0
15 -16 0
15 -425 0
15 -420 0
15 -424 0
-16 418 419 0
16 -418 0
16 -419 0
-17 414 421 0
17 -414 0
17 -421 0
-18 415 416 417 0
18 -415 0
18 -417 0
18 -416 0
-19 -442 20 0
-19 442 27 0
19 -442 -20 0
19 442 -27 0
20 443 -21 0
20 -443 -24 0
-20 -443 24 0
-20 443 21 0
21 444 -22 0
21 -444 -23 0
-21 -444 23 0
-21 444 22 0
22 445 -459 0
22 -445 -460 0
-22 -445 460 0
-22 445 459 0
23 445 -461 0
23 -445 -462 0
-23 -445 462 0
-23 445 461 0
24 444 -25 0
24 -444 -26 0
-24 -444 26 0
-24 444 25 0
25 445 -463 0
25 -445 -464 0
-25 -445 464 0
-25 445 463 0
26 445 -465 0
26 -445 -466 0
-26 -445 466 0
-26 445 465 0
-27 443 31 0
-27 -443 28 0
27 -443 -28 0
27 443 -31 0
28 444 -29 0
28 -444 -30 0
-28 -444 30 0
-28 444 29 0
29 445 -455 0
29 -445 -456 0
-29 -445 456 0
-29 445 455 0
30 445 -457 0
30 -445 -458 0
-30 -445 458 0
-30 445 457 0
31 444 -32 0
31 -444 -33 0
-31 -444 33 0
-31 444 32 0
32 445 -451 0
32 -445 -452 0
-32 -445 452 0
-32 445 451 0
33 445 -453 0
33 -445 -454 0
-33 -445 454 0
-33 445 453 0
34 442 -35 0
34 -442 -42 0
-34 -442 42 0
-34 442 35 0
35 443 -36 0
35 -443 -39 0
-35 -443 39 0
-35 443 36 0
36 444 -37 0
36 -444 -38 0
-36 -444 38 0
-36 444 37 0
37 445 -467 0
37 -445 -468 0
-37 -445 468 0
-37 445 467 0
38 445 -469 0
38 -445 -470 0
-38 -445 470 0
-38 445 469 0
39 444 -40 0
39 -444 -41 0
-39 -444 41 0
-39 444 40 0
40 445 -471 0
40 -445 -472 0
-40 -445 472 0
-40 445 471 0
41 445 -473 0
41 -445 -474 0
-41 -445 474 0
-41 445 473 0
42 443 -43 0
-42 -443 0
-42 43 0
43 444 -44 0
43 -444 445 -477 0
-43 -444 -445 0
-43 444 44 0
-43 -444 477 0
44 445 -475 0
44 -445 -476 0
-44 -445 476 0
-44 445 475 0
45 -46 -73 0
45 -46 -74 0
-45 46 0
-45 73 74 0
-46 452 47 0
46 -452 0
46 -47 0
47 441 8 -58 0
47 -441 8 -48 0
-47 -8 0
-47 441 58 0
-47 -441 48 0
48 442 -49 0
48 -442 -56 0
-48 -442 56 0
-48 442 49 0
49 443 -50 0
49 -443 -53 0
-49 -443 53 0
-49 443 50 0
50 444 -51 0
50 -444 -52 0
-50 -444 52 0
-50 444 51 0
51 445 -468 0
51 -445 -469 0
-51 -445 469 0
-51 445 468 0
52 445 -470 0
52 -445 -471 0
-52 -445 471 0
-52 445 470 0
53 444 -54 0
53 -444 -55 0
-53 -444 55 0
-53 444 54 0
54 445 -472 0
54 -445 -473 0
-54 -445 473 0
-54 445 472 0
55 445 -474 0
55 -445 -475 0
-55 -445 475 0
-55 445 474 0
56 443 -57 0
-56 -443 0
-56 57 0
57 444 -445 -477 0
57 444 445 -476 0
-57 -444 0
-57 -445 477 0
-57 445 476 0
-58 442 59 0
-58 -442 66 0
58 -442 -66 0
58 442 -59 0
-59 443 63 0
-59 -443 60 0
59 -443 -60 0
59 443 -63 0
60 444 -61 0
60 -444 -62 0
-60 -444 62 0
-60 444 61 0
61 445 -456 0
61 -445 -457 0
-61 -445 457 0
-61 445 456 0
62 445 -458 0
62 -445 -459 0
-62 -445 459 0
-62 445 458 0
63 444 -64 0
63 -444 -65 0
-63 -444 65 0
-63 444 64 0
64 445 -452 0
64 -445 -453 0
-64 -445 453 0
-64 445 452 0
65 445 -454 0
65 -445 -455 0
-65 -445 455 0
-65 445 454 0
66 443 -67 0
66 -443 -70 0
-66 -443 70 0
-66 443 67 0
67 444 -68 0
67 -444 -69 0
-67 -444 69 0
-67 444 68 0
68 445 -460 0
68 -445 -461 0
-68 -445 461 0
-68 445 460 0
69 445 -462 0
69 -445 -463 0
-69 -445 463 0
-69 445 462 0
70 444 -71 0
70 -444 -72 0
-70 -444 72 0
-70 444 71 0
71 445 -464 0
71 -445 -465 0
-71 -445 465 0
-71 445 464 0
72 445 -466 0
72 -445 -467 0
-72 -445 467 0
-72 445 466 0
73 -452 -47 0
-73 452 0
-73 47 0
74 -75 -89 0
74 -75 -224 0
-74 75 0
-74 89 224 0
-75 453 76 0
75 -453 0
75 -76 0
76 441 8 -82 0
76 -441 8 -77 0
-76 -8 0
-76 441 82 0
-76 -441 77 0
77 442 -78 0
77 -442 -81 0
-77 -442 81 0
-77 442 78 0
78 443 -79 0
78 -443 -80 0
-78 -443 80 0
-78 443 79 0
79 444 -38 0
79 -444 -40 0
-79 -444 40 0
-79 444 38 0
80 444 -41 0
80 -444 -44 0
-80 -444 44 0
-80 444 41 0
81 443 444 445 -477 0
-81 477 0
-81 -445 0
-81 -443 0
-81 -444 0
-82 -442 83 0
-82 442 86 0
82 -442 -83 0
82 442 -86 0
83 443 -84 0
83 -443 -85 0
-83 -443 85 0
-83 443 84 0
84 444 -23 0
84 -444 -25 0
-84 -444 25 0
-84 444 23 0
85 444 -26 0
85 -444 -37 0
-85 -444 37 0
-85 444 26 0
-86 443 88 0
-86 -443 87 0
86 -443 -87 0
86 443 -88 0
87 444 -30 0
87 -444 -22 0
-87 -444 22 0
-87 444 30 0
88 -444 -29 0
88 444 -33 0
-88 444 33 0
-88 -444 29 0
89 -90 -104 0
89 -90 -105 0
-89 90 0
-89 104 105 0
-90 454 91 0
90 -454 0
90 -91 0
91 441 8 -97 0
91 -441 8 -92 0
-91 -8 0
-91 -441 92 0
-91 441 97 0
92 442 -93 0
-92 -442 0
-92 93 0
93 443 -94 0
93 -443 -95 0
-93 -443 95 0
-93 443 94 0
94 444 -52 0
94 -444 -54 0
-94 -444 54 0
-94 444 52 0
95 444 -55 0
95 -444 -96 0
-95 -444 96 0
-95 444 55 0
96 445 -476 0
96 -445 -477 0
-96 -445 477 0
-96 445 476 0
97 442 -98 0
97 -442 -101 0
-97 -442 101 0
-97 442 98 0
98 443 -99 0
98 -443 -100 0
-98 -443 100 0
-98 443 99 0
99 444 -65 0
99 -444 -61 0
-99 -444 61 0
-99 444 65 0
100 444 -62 0
100 -444 -68 0
-100 -444 68 0
-100 444 62 0
101 443 -102 0
101 -443 -103 0
-101 -443 103 0
-101 443 102 0
102 444 -69 0
102 -444 -71 0
-102 -444 71 0
-102 444 69 0
103 444 -72 0
103 -444 -51 0
-103 -444 51 0
-103 444 72 0
104 -454 -91 0
-104 454 0
-104 91 0
105 -106 -113 0
105 -106 -114 0
-105 106 0
-105 113 114 0
-106 455 107 0
106 -455 0
106 -107 0
107 -441 8 -111 0
107 441 8 -108 0
-107 -8 0
-107 -441 111 0
-107 441 108 0
108 442 -109 0
108 -442 -110 0
-108 -442 110 0
-108 442 109 0
109 443 -28 0
109 -443 -21 0
-109 -443 21 0
-109 443 28 0
110 443 -24 0
110 -443 -36 0
-110 -443 36 0
-110 443 24 0
111 442 -112 0
-111 -442 0
-111 112 0
112 443 -39 0
112 -443 -43 0
-112 -443 43 0
-112 443 39 0
113 -455 -107 0
-113 455 0
-113 107 0
114 -115 -122 0
114 -115 -123 0
-114 115 0
-114 122 123 0
-115 456 116 0
115 -456 0
115 -116 0
116 -441 8 -120 0
116 441 8 -117 0
-116 -8 0
-116 -441 120 0
-116 441 117 0
117 442 -118 0
117 -442 -119 0
-117 -442 119 0
-117 442 118 0
118 443 -60 0
118 -443 -67 0
-118 -443 67 0
-118 443 60 0
119 443 -70 0
119 -443 -50 0
-119 -443 50 0
-119 443 70 0
120 442 -121 0
-120 -442 0
-120 121 0
121 443 -53 0
121 -443 -57 0
-121 -443 57 0
-121 443 53 0
122 -456 -116 0
-122 456 0
-122 116 0
123 -124 -132 0
123 -124 -133 0
-123 124 0
-123 132 133 0
-124 457 125 0
124 -457 0
124 -125 0
125 -441 8 -129 0
125 441 8 -126 0
-125 -8 0
-125 -441 129 0
-125 441 126 0
126 442 -127 0
126 -442 -128 0
-126 -442 128 0
-126 442 127 0
127 -443 -84 0
127 443 -87 0
-127 443 87 0
-127 -443 84 0
128 443 -85 0
128 -443 -79 0
-128 -443 79 0
-128 443 85 0
129 442 -130 0
-129 -442 0
-129 130 0
130 443 -80 0
130 -443 -131 0
-130 -443 131 0
-130 443 80 0
131 444 445 -477 0
-131 477 0
-131 -445 0
-131 -444 0
132 -457 -125 0
-132 457 0
-132 125 0
133 -134 -145 0
133 -134 -141 -146 0
-133 134 0
-133 141 145 0
-133 145 146 0
-134 458 135 0
134 -458 0
134 -135 0
135 -441 8 -139 0
135 441 8 -136 0
-135 -8 0
-135 -441 139 0
-135 441 136 0
136 442 -137 0
136 -442 -138 0
-136 -442 138 0
-136 442 137 0
137 443 -100 0
137 -443 -102 0
-137 -443 102 0
-137 443 100 0
138 443 -103 0
138 -443 -94 0
-138 -443 94 0
-138 443 103 0
139 442 -140 0
-139 -442 0
-139 140 0
140 443 -95 0
-140 -443 0
-140 95 0
-141 459 142 0
141 -459 0
141 -142 0
142 -441 8 -144 0
142 441 8 -143 0
-142 -8 0
-142 -441 144 0
-142 441 143 0
143 442 -20 0
143 -442 -35 0
-143 -442 35 0
-143 442 20 0
144 442 -42 0
-144 -442 0
-144 42 0
145 -458 -135 0
-145 458 0
-145 135 0
-146 147 148 0
146 -147 0
146 -148 0
147 -459 -142 0
-147 459 0
-147 142 0
148 -149 -153 0
148 -149 -154 0
-148 149 0
-148 153 154 0
-149 460 150 0
149 -460 0
149 -150 0
150 -441 8 -152 0
150 441 8 -151 0
-150 -8 0
-150 -441 152 0
-150 441 151 0
151 -442 -49 0
151 442 -66 0
-151 442 66 0
-151 -442 49 0
152 442 -56 0
-152 -442 0
-152 56 0
153 -460 -150 0
-153 460 0
-153 150 0
154 -155 -159 0
154 -155 -160 0
-154 155 0
-154 159 160 0
-155 461 156 0
155 -461 0
155 -156 0
156 -441 8 -158 0
156 441 8 -157 0
-156 -8 0
-156 -441 158 0
-156 441 157 0
157 442 -83 0
157 -442 -78 0
-157 -442 78 0
-157 442 83 0
158 442 -81 0
-158 -442 0
-158 81 0
159 -461 -156 0
-159 461 0
-159 156 0
160 -161 -165 0
160 -161 -166 0
-160 161 0
-160 165 166 0
-161 462 162 0
161 -462 0
161 -162 0
162 -163 164 0
-162 163 0
-162 -164 0
163 442 -101 0
163 -442 -93 0
-163 -442 93 0
-163 442 101 0
-164 441 8 0
164 -441 0
164 -8 0
165 -462 -162 0
-165 462 0
-165 162 0
166 -167 -170 0
166 -167 -171 0
-166 167 0
-166 170 171 0
-167 463 168 0
167 -463 0
167 -168 0
168 164 -169 0
-168 -164 0
-168 169 0
169 442 -110 0
169 -442 -112 0
-169 -442 112 0
-169 442 110 0
170 -463 -168 0
-170 463 0
-170 168 0
171 -172 -175 0
171 -172 -176 0
-171 172 0
-171 175 176 0
-172 464 173 0
172 -464 0
172 -173 0
173 164 -174 0
-173 -164 0
-173 174 0
174 442 -119 0
174 -442 -121 0
-174 -442 121 0
-174 442 119 0
175 -464 -173 0
-175 464 0
-175 173 0
176 -177 -180 0
176 -177 -181 0
-176 177 0
-176 180 181 0
-177 465 178 0
177 -465 0
177 -178 0
178 164 -179 0
-178 -164 0
-178 179 0
179 442 -128 0
179 -442 -130 0
-179 -442 130 0
-179 442 128 0
180 -465 -178 0
-180 465 0
-180 178 0
181 -182 -185 0
181 -182 -186 0
-181 182 0
-181 185 186 0
-182 466 183 0
182 -466 0
182 -183 0
183 -184 164 0
-183 184 0
-183 -164 0
184 442 -138 0
184 -442 -140 0
-184 -442 140 0
-184 442 138 0
185 -466 -183 0
-185 466 0
-185 183 0
186 -187 -189 0
186 -187 -190 0
-186 187 0
-186 189 190 0
-187 467 188 0
187 -467 0
187 -188 0
188 164 -34 0
-188 -164 0
-188 34 0
189 -467 -188 0
-189 467 0
-189 188 0
190 -193 -195 0
190 -191 -193 -196 0
-190 193 0
-190 191 195 0
-190 195 196 0
-191 469 192 0
191 -469 0
191 -192 0
192 164 -77 0
-192 -164 0
-192 77 0
-193 468 194 0
193 -468 0
193 -194 0
194 164 -48 0
-194 -164 0
-194 48 0
195 -468 -194 0
-195 468 0
-195 194 0
-196 197 198 0
196 -197 0
196 -198 0
197 -469 -192 0
-197 469 0
-197 192 0
198 -201 -203 0
198 -199 -201 -204 0
-198 201 0
-198 199 203 0
-198 203 204 0
-199 471 200 0
199 -471 0
199 -200 0
200 -111 164 0
-200 111 0
-200 -164 0
-201 470 202 0
201 -470 0
201 -202 0
202 164 -92 0
-202 -164 0
-202 92 0
203 -470 -202 0
-203 470 0
-203 202 0
-204 205 206 0
204 -205 0
204 -206 0
205 -471 -200 0
-205 471 0
-205 200 0
206 -207 -209 0
206 -207 -210 0
-206 207 0
-206 209 210 0
-207 472 208 0
207 -472 0
207 -208 0
208 -120 164 0
-208 120 0
-208 -164 0
209 -472 -208 0
-209 472 0
-209 208 0
210 -211 -213 0
210 -211 -214 0
-210 211 0
-210 213 214 0
-211 473 212 0
211 -473 0
211 -212 0
212 -129 164 0
-212 129 0
-212 -164 0
213 -473 -212 0
-213 473 0
-213 212 0
214 -215 -217 0
214 -215 -218 0
-214 215 0
-214 217 218 0
-215 474 216 0
215 -474 0
215 -216 0
216 -139 164 0
-216 139 0
-216 -164 0
217 -474 -216 0
-217 474 0
-217 216 0
218 -219 -221 0
218 -219 -222 0
-218 219 0
-218 221 222 0
-219 475 220 0
219 -475 0
219 -220 0
220 -144 164 0
-220 144 0
-220 -164 0
221 -475 -220 0
-221 475 0
-221 220 0
222 -476 -223 0
-222 476 0
-222 223 0
223 164 -152 0
-223 -164 0
-223 152 0
224 -453 -76 0
-224 453 0
-224 76 0
225 -451 -7 0
-225 451 0
-225 7 0
226 -227 233 0
-226 227 0
-226 -233 0
-227 450 228 0
227 -450 0
227 -228 0
228 -441 8 -184 0
228 441 8 -229 0
-228 -8 0
-228 -441 184 0
-228 441 229 0
-229 442 230 0
-229 -442 137 0
229 -442 -137 0
229 442 -230 0
-230 -443 99 0
-230 443 231 0
230 443 -231 0
230 -443 -99 0
231 444 -232 0
231 -444 -64 0
-231 -444 64 0
-231 444 232 0
232 445 -450 0
232 -445 -451 0
-232 -445 451 0
-232 445 450 0
233 -450 -228 0
-233 450 0
-233 228 0
-234 45 235 269 0
-234 -45 235 -269 0
234 -235 0
234 -45 269 0
234 45 -269 0
-235 -236 -265 267 0
-235 236 250 265 267 0
235 -250 265 0
235 236 -265 0
235 -267 0
235 -236 265 0
236 237 -243 0
236 447 -243 0
-236 243 0
-236 -447 -237 0
237 441 8 -238 0
237 -441 8 -169 0
-237 -8 0
-237 441 238 0
-237 -441 169 0
-238 -442 109 0
-238 442 239 0
238 -442 -109 0
238 442 -239 0
-239 -443 31 0
-239 443 240 0
239 -443 -31 0
239 443 -240 0
-240 444 242 0
-240 -444 241 0
240 -444 -241 0
240 444 -242 0
241 445 -449 0
241 -445 -450 0
-241 -445 450 0
-241 445 449 0
242 445 -447 0
242 -445 -448 0
-242 -445 448 0
-242 445 447 0
243 446 -244 0
243 -446 244 0
-243 -446 -244 0
-243 446 244 0
244 -441 8 -163 0
244 441 8 -245 0
-244 -8 0
-244 -441 163 0
-244 441 245 0
-245 442 246 0
-245 -442 98 0
245 -442 -98 0
245 442 -246 0
-246 443 247 0
-246 -443 231 0
246 -443 -231 0
246 443 -247 0
-247 444 249 0
-247 -444 248 0
247 -444 -248 0
247 444 -249 0
248 445 -448 0
248 -445 -449 0
-248 -445 449 0
-248 445 448 0
249 445 -446 0
249 -445 -447 0
-249 -445 447 0
-249 445 446 0
250 -251 -256 0
250 -251 -264 0
-250 251 0
-250 256 264 0
-251 448 252 0
251 -448 0
251 -252 0
252 -441 8 -174 0
252 441 8 -253 0
-252 -8 0
-252 -441 174 0
-252 441 253 0
-253 -442 118 0
-253 442 254 0
253 -442 -118 0
253 442 -254 0
-254 443 255 0
-254 -443 63 0
254 -443 -63 0
254 443 -255 0
-255 -444 232 0
-255 444 248 0
255 444 -248 0
255 -444 -232 0
256 -257 -262 0
256 -257 -263 0
-256 257 0
-256 262 263 0
-257 449 258 0
257 -449 0
257 -258 0
258 -441 8 -179 0
258 441 8 -259 0
-258 -8 0
-258 -441 179 0
-258 441 259 0
-259 -442 127 0
-259 442 260 0
259 -442 -127 0
259 442 -260 0
-260 443 261 0
-260 -443 88 0
260 -443 -88 0
260 443 -261 0
-261 444 241 0
-261 -444 32 0
261 -444 -32 0
261 444 -241 0
262 -449 -258 0
-262 449 0
-262 258 0
263 -227 -5 0
263 -227 -233 0
-263 227 0
-263 5 233 0
264 -448 -252 0
-264 448 0
-264 252 0
265 -266 243 0
265 -266 -250 0
-265 266 0
-265 -243 250 0
-266 447 237 0
266 -447 0
266 -237 0
267 263 -268 0
267 -263 268 0
-267 -263 -268 0
-267 263 268 0
268 -257 262 0
-268 257 0
-268 -262 0
269 -6 225 0
-269 6 0
-269 -225 0
-270 -74 256 271 -272 0
-270 -74 -256 -271 -272 0
-270 74 256 271 272 0
-270 74 -256 -271 272 0
270 74 -272 0
270 -74 272 0
270 -256 271 0
270 256 -271 0
271 -251 264 0
-271 251 0
-271 -264 0
272 -46 73 0
-272 46 0
-272 -73 0
273 -274 4 -313 0
273 285 4 -313 0
-273 313 0
-273 -4 0
-273 274 -285 0
-274 275 257 282 283 0
274 -283 0
274 -275 0
274 -282 0
274 -257 0
-275 276 227 277 279 0
275 -279 0
275 -276 0
275 -277 0
275 -227 0
-276 446 244 0
276 -446 0
276 -244 0
-277 278 155 141 124 0
277 -124 0
277 -278 0
277 -141 0
277 -155 0
-278 134 106 115 0
278 -134 0
278 -106 0
278 -115 0
-279 199 280 90 281 0
279 -281 0
279 -199 0
279 -90 0
279 -280 0
-280 6 207 201 191 0
280 -191 0
280 -6 0
280 -201 0
280 -207 0
-281 182 187 193 0
281 -182 0
281 -187 0
281 -193 0
-282 75 251 46 0
282 -75 0
282 -251 0
282 -46 0
-283 167 284 266 149 0
283 -149 0
283 -167 0
283 -266 0
283 -284 0
-284 172 177 161 0
284 -172 0
284 -177 0
284 -161 0
-285 211 286 0
-285 -211 301 0
285 211 -286 0
285 -211 -301 0
-286 215 287 0
-286 -215 -298 0
-286 -215 295 0
286 215 -287 0
286 -215 -295 298 0
-287 219 288 0
-287 -219 292 0
287 219 -288 0
287 -219 -292 0
-288 289 291 0
-288 -289 290 0
288 -289 -290 0
288 289 -291 0
-289 476 223 0
289 -476 0
289 -223 0
290 -441 477 0
290 -440 -477 0
-290 441 477 0
-290 440 -477 0
291 -443 477 0
291 -442 -477 0
-291 443 477 0
-291 442 -477 0
292 289 -293 0
292 -289 -294 0
-292 -289 294 0
-292 289 293 0
293 -439 477 0
293 -438 -477 0
-293 439 477 0
-293 438 -477 0
294 -437 477 0
294 -436 -477 0
-294 437 477 0
-294 436 -477 0
-295 219 -289 297 0
-295 219 289 296 0
295 -219 0
295 289 -296 0
295 -289 -297 0
296 -435 477 0
296 -434 -477 0
-296 435 477 0
-296 434 -477 0
297 -433 477 0
297 -432 -477 0
-297 433 477 0
-297 432 -477 0
298 -219 289 299 0
298 -219 -289 300 0
-298 219 0
-298 289 -299 0
-298 -289 -300 0
299 -431 477 0
299 -430 -477 0
-299 431 477 0
-299 430 -477 0
300 -429 477 0
300 -428 -477 0
-300 429 477 0
-300 428 -477 0
301 -215 -308 0
301 215 -302 305 0
-301 215 302 0
-301 -215 308 0
-301 215 -305 0
-302 219 -289 304 0
-302 219 289 303 0
302 -219 0
302 289 -303 0
302 -289 -304 0
303 -427 477 0
303 -426 -477 0
-303 427 477 0
-303 426 -477 0
304 -425 477 0
304 -424 -477 0
-304 425 477 0
-304 424 -477 0
305 -219 289 306 0
305 -219 -289 307 0
-305 219 0
-305 289 -306 0
-305 -289 -307 0
306 -423 477 0
306 -422 -477 0
-306 423 477 0
-306 422 -477 0
307 -421 477 0
307 -420 -477 0
-307 421 477 0
-307 420 -477 0
308 219 -309 0
308 -219 289 -312 0
-308 219 309 0
-308 -219 -289 0
-308 -219 312 0
309 289 -310 0
309 -289 -311 0
-309 -289 311 0
-309 289 310 0
310 -419 477 0
310 -418 -477 0
-310 419 477 0
-310 418 -477 0
311 -417 477 0
311 -416 -477 0
-311 417 477 0
-311 416 -477 0
312 -415 477 0
312 -414 -477 0
-312 415 477 0
-312 414 -477 0
313 -285 314 334 342 0
-313 285 0
-313 -342 0
-313 -334 0
-313 -314 0
-314 -105 315 329 -333 0
-314 105 315 329 333 0
314 -315 0
314 105 -333 0
314 -329 0
314 -105 333 0
-315 89 316 317 327 0
-315 -89 -316 317 327 0
315 -327 0
315 -89 316 0
315 -317 0
315 89 -316 0
316 -75 224 0
-316 75 0
-316 -224 0
-317 -190 318 324 -326 0
-317 190 318 324 326 0
317 -318 0
317 190 -326 0
317 -324 0
317 -190 326 0
-318 -319 -321 322 0
-318 206 319 321 322 0
318 -319 321 0
318 319 -321 0
318 -322 0
318 -206 319 0
319 205 -320 0
-319 -205 0
-319 320 0
320 470 -202 0
320 -470 202 0
-320 -470 -202 0
-320 470 202 0
321 -199 -206 0
321 -199 320 0
-321 199 0
-321 206 -320 0
322 210 -323 0
322 -210 323 0
-322 -210 -323 0
-322 210 323 0
323 472 -208 0
323 -472 208 0
-323 -472 -208 0
-323 472 208 0
-324 469 -192 -198 -325 0
-324 -469 192 -198 -325 0
-324 469 192 198 325 0
-324 -469 -192 198 -325 0
324 -469 325 0
324 192 198 -325 0
324 -469 -192 -198 0
324 -192 325 0
324 469 198 -325 0
324 469 192 -198 0
325 468 -194 0
325 -468 194 0
-325 -468 -194 0
-325 468 194 0
326 467 -188 0
326 -467 188 0
-326 -467 -188 0
-326 467 188 0
-327 464 -173 -176 -328 0
-327 -464 173 -176 -328 0
-327 464 173 176 328 0
-327 -464 -173 176 -328 0
327 -464 328 0
327 173 176 -328 0
327 -464 -173 -176 0
327 -173 328 0
327 464 176 -328 0
327 464 173 -176 0
328 463 -168 0
328 -463 168 0
-328 -463 -168 0
-328 463 168 0
-329 166 330 332 0
-329 -166 330 -332 0
329 -330 0
329 -166 332 0
329 166 -332 0
-330 461 -156 -160 -331 0
-330 -461 156 -160 -331 0
-330 461 156 160 331 0
-330 -461 -156 160 -331 0
330 -461 331 0
330 156 160 -331 0
330 -461 -156 -160 0
330 -156 331 0
330 461 160 -331 0
330 461 156 -160 0
331 -149 153 0
-331 149 0
-331 -153 0
332 462 -162 0
332 -462 162 0
-332 -462 -162 0
-332 462 162 0
333 -90 104 0
-333 90 0
-333 -104 0
-334 114 335 336 339 0
-334 -114 -335 336 339 0
334 -339 0
334 -114 335 0
334 -336 0
334 114 -335 0
335 -106 113 0
-335 106 0
-335 -113 0
-336 141 133 337 0
-336 141 -133 -337 0
-336 133 337 -338 0
-336 -133 -337 -338 0
336 -133 337 0
336 133 -337 0
336 -141 338 0
337 -124 132 0
-337 124 0
-337 -132 0
338 -134 145 0
-338 134 0
-338 -145 0
-339 -123 -340 341 0
-339 123 340 341 0
339 -341 0
339 -123 340 0
339 123 -340 0
340 -115 122 0
-340 115 0
-340 -122 0
-341 459 -142 -148 0
-341 -459 142 -148 0
-341 148 338 0
-341 -459 -142 148 0
341 459 148 -338 0
341 -459 -142 -148 0
341 142 148 -338 0
341 459 142 -148 0
-342 466 -183 -186 -343 0
-342 -466 183 -186 -343 0
-342 466 183 186 343 0
-342 -466 -183 186 -343 0
342 -466 343 0
342 183 186 -343 0
342 -466 -183 -186 0
342 -183 343 0
342 466 186 -343 0
342 466 183 -186 0
343 465 -178 0
343 -465 178 0
-343 -465 -178 0
-343 465 178 0
344 274 -211 -359 0
344 274 211 -345 0
-344 -274 0
-344 211 345 0
-344 -211 359 0
-345 215 346 0
-345 -215 -356 0
-345 -215 353 0
345 215 -346 0
345 -215 -353 356 0
-346 219 347 0
-346 -219 350 0
346 219 -347 0
346 -219 -350 0
-347 289 349 0
-347 -289 348 0
347 -289 -348 0
347 289 -349 0
348 -442 477 0
348 -441 -477 0
-348 442 477 0
-348 441 -477 0
349 -444 477 0
349 -443 -477 0
-349 444 477 0
-349 443 -477 0
350 289 -351 0
350 -289 -352 0
-350 -289 352 0
-350 289 351 0
351 -440 477 0
351 -439 -477 0
-351 440 477 0
-351 439 -477 0
352 -438 477 0
352 -437 -477 0
-352 438 477 0
-352 437 -477 0
-353 219 -289 355 0
-353 219 289 354 0
353 -219 0
353 289 -354 0
353 -289 -355 0
354 -436 477 0
354 -435 -477 0
-354 436 477 0
-354 435 -477 0
355 -434 477 0
355 -433 -477 0
-355 434 477 0
-355 433 -477 0
356 -219 289 357 0
356 -219 -289 358 0
-356 219 0
-356 289 -357 0
-356 -289 -358 0
357 -432 477 0
357 -431 -477 0
-357 432 477 0
-357 431 -477 0
358 -430 477 0
358 -429 -477 0
-358 430 477 0
-358 429 -477 0
359 -215 -366 0
359 215 -360 363 0
-359 215 360 0
-359 -215 366 0
-359 215 -363 0
-360 219 -289 362 0
-360 219 289 361 0
360 -219 0
360 289 -361 0
360 -289 -362 0
361 -428 477 0
361 -427 -477 0
-361 428 477 0
-361 427 -477 0
362 -426 477 0
362 -425 -477 0
-362 426 477 0
-362 425 -477 0
363 -219 289 364 0
363 -219 -289 365 0
-363 219 0
-363 289 -364 0
-363 -289 -365 0
364 -424 477 0
364 -423 -477 0
-364 424 477 0
-364 423 -477 0
365 -422 477 0
365 -421 -477 0
-365 422 477 0
-365 421 -477 0
366 219 -367 0
366 -219 -370 0
-366 -219 370 0
-366 219 367 0
367 289 -368 0
367 -289 -369 0
-367 -289 369 0
-367 289 368 0
368 -420 477 0
368 -419 -477 0
-368 420 477 0
-368 419 -477 0
369 -418 477 0
369 -417 -477 0
-369 418 477 0
-369 417 -477 0
370 289 -371 0
370 -414 477 -289 0
-370 -477 -289 0
-370 289 371 0
-370 414 -289 0
371 -416 477 0
371 -415 -477 0
-371 416 477 0
-371 415 -477 0
372 314 334 342 -373 0
-372 373 0
-372 -314 0
-372 -342 0
-372 -334 0
373 -359 -374 0
373 -345 374 0
-373 345 374 0
-373 359 -374 0
374 214 -375 0
374 -214 375 0
-374 -214 -375 0
-374 214 375 0
375 -211 213 0
-375 211 0
-375 -213 0
376 274 -211 -385 0
376 274 211 -377 0
-376 -274 0
-376 211 377 0
-376 -211 385 0
-377 215 378 0
-377 -215 382 0
377 215 -378 0
377 -215 -382 0
-378 219 379 0
-378 -219 381 0
378 219 -379 0
378 -219 -381 0
-379 289 380 0
-379 -289 291 0
379 -289 -291 0
379 289 -380 0
380 -445 477 0
380 -444 -477 0
-380 445 477 0
-380 444 -477 0
381 289 -290 0
381 -289 -293 0
-381 -289 293 0
-381 289 290 0
382 219 -383 0
382 -219 -384 0
-382 -219 384 0
-382 219 383 0
383 289 -294 0
383 -289 -296 0
-383 -289 296 0
-383 289 294 0
384 289 -297 0
384 -289 -299 0
-384 -289 299 0
-384 289 297 0
385 215 -386 0
385 -215 -389 390 0
-385 -215 -390 0
-385 215 386 0
-385 -215 389 0
386 219 -387 0
386 -219 -388 0
-386 -219 388 0
-386 219 387 0
387 289 -300 0
387 -289 -303 0
-387 -289 303 0
-387 289 300 0
388 289 -304 0
388 -289 -306 0
-388 -289 306 0
-388 289 304 0
-389 219 -289 310 0
-389 219 289 307 0
389 -219 0
389 289 -307 0
389 -289 -310 0
390 -219 289 311 0
390 -219 -289 312 0
-390 219 0
-390 289 -311 0
-390 -289 -312 0
391 4 314 334 -392 0
-391 392 0
-391 -4 0
-391 -334 0
-391 -314 0
392 342 374 -393 0
392 342 -374 -385 0
-392 -342 0
-392 -374 385 0
-392 374 393 0
393 -382 -394 0
393 394 -396 0
-393 382 -394 0
-393 394 396 0
394 218 -395 0
394 -218 395 0
-394 -218 -395 0
-394 218 395 0
395 -215 217 0
-395 215 0
-395 -217 0
396 -381 -397 0
396 -379 397 0
-396 379 397 0
-396 381 -397 0
397 222 -398 0
397 -222 398 0
-397 -222 -398 0
-397 222 398 0
398 -219 221 0
-398 219 0
-398 -221 0
399 -274 4 -413 0
399 4 400 -413 0
-399 413 0
-399 -4 0
-399 274 -400 0
-400 211 401 0
-400 -211 407 0
400 211 -401 0
400 -211 -407 0
-401 215 402 0
-401 -215 -406 0
-401 -215 405 0
401 215 -402 0
401 -215 -405 406 0
-402 219 403 0
-402 -219 404 0
402 219 -403 0
402 -219 -404 0
-403 -289 351 0
-403 289 348 0
403 289 -348 0
403 -289 -351 0
404 289 -352 0
404 -289 -354 0
-404 -289 354 0
-404 289 352 0
-405 219 -289 357 0
-405 219 289 355 0
405 -219 0
405 289 -355 0
405 -289 -357 0
406 -219 289 358 0
406 -219 -289 361 0
-406 219 0
-406 289 -358 0
-406 -289 -361 0
407 -215 -410 0
407 215 -408 409 0
-407 215 408 0
-407 -215 410 0
-407 215 -409 0
-408 219 -289 364 0
-408 219 289 362 0
408 -219 0
408 289 -362 0
408 -289 -364 0
409 -219 289 365 0
409 -219 -289 368 0
-409 219 0
-409 289 -365 0
-409 -289 -368 0
410 219 -412 0
410 -219 289 -411 0
-410 219 412 0
-410 -219 411 0
-410 -219 -289 0
411 -414 477 0
-411 414 0
-411 -477 0
412 289 -369 0
412 -289 -371 0
-412 -289 371 0
-412 289 369 0
413 314 334 342 -400 0
-413 -342 0
-413 400 0
-413 -314 0
-413 -334 0
-478 0
2 0

